# go2
  
units           metal
boundary        p p f
atom_style      atomic

neighbor        2.0 bin
neigh_modify    every 10 delay 0 check no

read_data       go2_water_structure_1.lmp

pair_style      deepmd go_water.pb
pair_coeff      * *

timestep        0.00050

velocity        all create 300.0 4500 dist gaussian
fix             1 all nvt temp 300.0 300.0 0.050

fix zwall all wall/lj93 zlo EDGE 0.05 3.46 8 zhi EDGE 0.05 3.46 8

thermo_style    multi
thermo_modify flush yes
thermo          1

dump            1 all custom 10 dump_go2_deepmd.lammpstrj id type x y z fx fy fz
dump_modify 1 sort 1

# 20 ps
run             40000

write_data go2_deepmd.data
write_restart go2_deepmd.restart
